32      4       
11      16      11      12      
0       0       0       0       0       11      2       3       4       5       7       8       9       12      13      14      17      
8       5       1       3       5       5       31      26      19      15      6       
7       6       1       4       1       5       25      18      16      15      11      
1       3       1       1       8       3       18      15      10      
8       2       1       1       3       3       23      16      15      
6       10      1       1       6       3       25      22      21      
1       1       7       1       1       2       23      15      
1       1       5       1       7       2       23      15      
6       3       4       2       1       2       24      15      
1       2       1       1       2       4       30      28      25      24      
3       1       4       1       1       3       30      24      20      
5       1       10      3       1       3       30      24      20      
2       3       5       6       2       4       30      29      27      26      
3       4       1       5       1       3       30      28      23      
10      1       2       1       1       2       30      20      
7       1       1       1       8       3       29      27      26      
1       2       6       9       1       3       30      28      25      
10      4       5       1       6       2       28      23      
3       1       7       1       6       1       20      
3       5       1       1       4       3       29      28      27      
1       1       13      6       1       3       30      28      27      
8       1       1       2       1       1       23      
1       5       1       1       5       1       24      
1       5       6       1       2       1       27      
1       1       1       4       1       1       29      
5       4       5       1       1       1       28      
1       1       1       9       1       1       32      
7       5       12      4       1       1       32      
3       2       1       1       10      1       32      
6       1       4       5       1       1       32      
10      1       11      5       1       1       32      
0       0       0       0       0       0       
